* ENCODING=ISO-8859-1
NAME          CPLEX
ROWS
 N  obj1    
 G  c1      
 G  c2      
 G  c3      
 G  c4      
 G  c5      
 G  c6      
 G  c7      
 G  c8      
 G  c9      
 G  c10     
 G  c11     
 G  c12     
 G  c13     
 G  c14     
 G  c15     
 G  c16     
 G  c17     
 G  c18     
 G  c19     
 G  c20     
 G  c21     
 G  c22     
 G  c23     
 G  c24     
 G  c25     
COLUMNS
    MARK0000  'MARKER'                 'INTORG'
    x1        obj1                            1
    x1        c6                            990
    x1        c18                           787
    x2        obj1                            1
    x2        c5                            500
    x2        c19                           176
    x2        c23                           936
    x3        obj1                            1
    x3        c6                            166
    x3        c17                           414
    x4        obj1                            1
    x4        c11                           567
    x4        c24                           555
    x5        obj1                            1
    x5        c9                            479
    x5        c11                           692
    x5        c16                           476
    x6        obj1                            1
    x6        c1                            553
    x6        c13                           224
    x7        obj1                            1
    x7        c2                            975
    x7        c4                            840
    x7        c7                            258
    x7        c16                           117
    x7        c18                           841
    x7        c24                           369
    x8        obj1                            1
    x9        obj1                            1
    x9        c4                            133
    x9        c9                            144
    x9        c21                           932
    x9        c25                           184
    x10       obj1                            1
    x10       c13                           461
    x11       obj1                            1
    x11       c17                           732
    x11       c18                           383
    x11       c20                           132
    x12       obj1                            1
    x12       c8                            283
    x12       c9                            123
    x12       c18                           187
    x13       obj1                            1
    x13       c6                            131
    x13       c7                            389
    x14       obj1                            1
    x14       c1                            473
    x14       c4                            142
    x14       c15                           535
    x14       c22                           929
    x15       obj1                            1
    x16       obj1                            1
    x16       c7                            582
    x16       c8                            552
    x16       c18                           308
    x17       obj1                            1
    x17       c6                            879
    x17       c13                           783
    x18       obj1                            1
    x18       c5                            951
    x18       c9                            987
    x19       obj1                            1
    x19       c22                           537
    x20       obj1                            1
    x20       c1                            271
    x20       c5                            884
    x20       c7                            932
    x20       c12                           752
    x21       obj1                            1
    x21       c6                            302
    x21       c20                           774
    x22       obj1                            1
    x23       obj1                            1
    x23       c3                            732
    x23       c20                           183
    x24       obj1                            1
    x24       c3                            707
    x25       obj1                            1
    x25       c15                           392
    x25       c16                           275
    x26       obj1                            1
    x26       c5                            394
    x26       c11                           293
    x26       c25                           468
    x27       obj1                            1
    x27       c7                            209
    x27       c15                           812
    x27       c16                           630
    x27       c17                           144
    x27       c24                           221
    x28       obj1                            1
    x28       c8                            113
    x28       c11                           971
    x28       c18                           946
    x28       c19                           997
    x28       c23                           997
    x29       obj1                            1
    x29       c11                           671
    x29       c16                           296
    x30       obj1                            1
    x30       c3                            948
    x30       c12                           383
    x30       c21                           152
    x31       obj1                            1
    x31       c5                            949
    x31       c8                            465
    x31       c23                           800
    x32       obj1                            1
    x32       c14                           372
    x32       c21                           665
    x33       obj1                            1
    x33       c2                            619
    x33       c8                            835
    x33       c10                           157
    x33       c18                           318
    x34       obj1                            1
    x34       c11                           860
    x35       obj1                            1
    x35       c14                           582
    x35       c22                           365
    x36       obj1                            1
    x36       c16                           501
    x36       c21                           960
    x36       c23                           964
    x37       obj1                            1
    x37       c1                            463
    x37       c9                            893
    x37       c12                           992
    x38       obj1                            1
    x38       c9                            794
    x38       c16                           232
    x39       obj1                            1
    x39       c7                            964
    x39       c10                           689
    x40       obj1                            1
    x40       c14                           880
    x40       c17                           975
    x40       c19                           551
    x40       c23                           531
    x40       c25                           626
    x41       obj1                            1
    x41       c11                           901
    x41       c24                           926
    x42       obj1                            1
    x42       c2                            623
    x42       c10                           300
    x42       c13                           250
    x42       c17                           933
    x42       c19                           430
    x42       c23                           697
    x43       obj1                            1
    x43       c10                           627
    x43       c14                           119
    x43       c24                           972
    x44       obj1                            1
    x44       c2                            137
    x44       c10                           287
    x44       c15                           734
    x44       c21                           878
    x44       c24                           578
    x45       obj1                            1
    x45       c2                            355
    x45       c12                           367
    x45       c14                           838
    x45       c21                           326
    x46       obj1                            1
    x47       obj1                            1
    x47       c2                            462
    x47       c4                            227
    x47       c13                           252
    x48       obj1                            1
    x48       c7                            773
    x48       c13                           772
    x49       obj1                            1
    x49       c10                           648
    x49       c22                           657
    x50       obj1                            1
    x50       c2                            484
    x50       c9                            258
    x50       c14                           299
    MARK0001  'MARKER'                 'INTEND'
RHS
    rhs       c1                            880
    rhs       c2                           1828
    rhs       c3                           1194
    rhs       c4                            671
    rhs       c5                           1839
    rhs       c6                           1234
    rhs       c7                           2054
    rhs       c8                           1124
    rhs       c9                           1839
    rhs       c10                          1354
    rhs       c11                          2478
    rhs       c12                          1247
    rhs       c13                          1371
    rhs       c14                          1545
    rhs       c15                          1237
    rhs       c16                          1264
    rhs       c17                          1599
    rhs       c18                          1885
    rhs       c19                          1077
    rhs       c20                           545
    rhs       c21                          1957
    rhs       c22                          1244
    rhs       c23                          2463
    rhs       c24                          1811
    rhs       c25                           639
BOUNDS
 LI bnd       x1        0
 LI bnd       x2        0
 LI bnd       x3        0
 LI bnd       x4        0
 LI bnd       x5        0
 LI bnd       x6        0
 LI bnd       x7        0
 LI bnd       x8        0
 LI bnd       x9        0
 LI bnd       x10       0
 LI bnd       x11       0
 LI bnd       x12       0
 LI bnd       x13       0
 LI bnd       x14       0
 LI bnd       x15       0
 LI bnd       x16       0
 LI bnd       x17       0
 LI bnd       x18       0
 LI bnd       x19       0
 LI bnd       x20       0
 LI bnd       x21       0
 LI bnd       x22       0
 LI bnd       x23       0
 LI bnd       x24       0
 LI bnd       x25       0
 LI bnd       x26       0
 LI bnd       x27       0
 LI bnd       x28       0
 LI bnd       x29       0
 LI bnd       x30       0
 LI bnd       x31       0
 LI bnd       x32       0
 LI bnd       x33       0
 LI bnd       x34       0
 LI bnd       x35       0
 LI bnd       x36       0
 LI bnd       x37       0
 LI bnd       x38       0
 LI bnd       x39       0
 LI bnd       x40       0
 LI bnd       x41       0
 LI bnd       x42       0
 LI bnd       x43       0
 LI bnd       x44       0
 LI bnd       x45       0
 LI bnd       x46       0
 LI bnd       x47       0
 LI bnd       x48       0
 LI bnd       x49       0
 LI bnd       x50       0
ENDATA
